\ENCODING=ISO-8859-1
\Problem name: 

Maximize
 obj: x1 + x2 + x3 + x4 + x5 + x6 + x7 + x8 + x9 + x10 + x11 + x12 + x13 + x14
      + x15 + x16 + x17 + x18 + x19 + x20 + x21 + x22 + x23 + x24 + x25 + x26
      + x27 + x28 + x29 + x30 + x31 + x32 + x33 + x34 + x35 + x36 + x37 + x38
      + x39 + x40 + x41 + x42 + x43 + x44 + x45 + x46 + x47 + x48 + x49 + x50
      + x51 + x52 + x53 + x54 + x55 + x56 + x57 + x58 + x59 + x60 + x61 + x62
      + x63 + x64 + x65 + x66 + x67 + x68 + x69 + x70 + x71 + x72 + x73 + x74
      + x75 + x76 + x77 + x78 + x79 + x80 + x81 + x82 + x83 + x84 + x85 + x86
      + x87 + x88 + x89 + x90 + x91 + x92 + x93 + x94 + x95 + x96 + x97 + x98
      + x99 + x100 + x101 + x102 + x103 + x104 + x105 + x106 + x107 + x108
      + x109 + x110 + x111 + x112 + x113 + x114 + x115 + x116 + x117 + x118
      + x119 + x120 + x121 + x122 + x123 + x124 + x125 + x126 + x127 + x128
      + x129 + x130 + x131 + x132 + x133 + x134 + x135 + x136 + x137 + x138
      + x139 + x140 + x141 + x142 + x143 + x144 + x145 + x146 + x147 + x148
      + x149 + x150 + x151 + x152 + x153 + x154 + x155 + x156 + x157 + x158
      + x159 + x160 + x161 + x162 + x163 + x164 + x165 + x166 + x167 + x168
      + x169 + x170 + x171 + x172 + x173 + x174 + x175
Subject To
 clq1:   x58 + x126 + x165 <= 1
 clq2:   x75 + x156 + x164 <= 1
 clq3:   x2 + x32 + x62 + x72 <= 1
 clq4:   x12 + x30 + x111 <= 1
 clq5:   x19 + x30 + x155 <= 1
 clq6:   x5 + x81 + x108 <= 1
 clq7:   x10 + x118 + x158 <= 1
 clq8:   x45 + x111 <= 1
 clq9:   x7 + x95 + x152 <= 1
 clq10:  x37 + x114 + x116 <= 1
 clq11:  x46 + x123 <= 1
 clq12:  x19 + x113 + x155 <= 1
 clq13:  x24 + x82 + x125 <= 1
 clq14:  x122 + x148 + x160 <= 1
 clq15:  x17 + x46 <= 1
 clq16:  x5 + x22 + x81 <= 1
 clq17:  x8 + x81 + x100 <= 1
 clq18:  x44 + x59 + x94 + x141 <= 1
 clq19:  x77 + x125 + x145 <= 1
 clq20:  x88 + x124 <= 1
 clq21:  x83 + x144 <= 1
 clq22:  x13 + x57 + x125 <= 1
 clq23:  x95 + x144 <= 1
 clq24:  x51 + x149 + x152 <= 1
 clq25:  x54 + x136 + x166 <= 1
 clq26:  x4 + x130 + x139 <= 1
 clq27:  x45 + x61 <= 1
 clq28:  x31 + x48 + x136 <= 1
 clq29:  x20 + x99 + x151 <= 1
 clq30:  x41 + x87 + x92 <= 1
 clq31:  x49 + x54 + x122 <= 1
 clq32:  x19 + x154 <= 1
 clq33:  x11 + x39 + x116 <= 1
 clq34:  x93 + x114 + x153 <= 1
 clq35:  x1 + x8 + x39 <= 1
 clq36:  x73 + x110 + x162 + x174 <= 1
 clq37:  x95 + x139 + x174 <= 1
 clq38:  x46 + x164 <= 1
 clq39:  x125 + x148 <= 1
 clq40:  x27 + x172 <= 1
 clq41:  x57 + x110 + x142 <= 1
 clq42:  x33 + x75 + x134 <= 1
 clq43:  x16 + x36 + x124 <= 1
 clq44:  x38 + x119 <= 1
 clq45:  x39 + x49 + x62 <= 1
 clq46:  x37 + x107 + x120 <= 1
 clq47:  x55 + x69 + x157 <= 1
 clq48:  x68 + x159 <= 1
 clq49:  x79 + x126 + x165 <= 1
 clq50:  x24 + x40 + x81 <= 1
 clq51:  x10 + x113 + x130 <= 1
 clq52:  x6 + x128 + x153 <= 1
 clq53:  x9 + x23 + x84 <= 1
 clq54:  x63 + x168 <= 1
 clq55:  x36 + x68 + x138 <= 1
 clq56:  x29 + x111 + x131 <= 1
 clq57:  x14 + x153 <= 1
 clq58:  x13 + x35 + x52 <= 1
 clq59:  x113 + x128 + x138 <= 1
 clq60:  x133 + x142 <= 1
 clq61:  x19 + x57 + x110 <= 1
 clq62:  x44 + x83 + x94 <= 1
 clq63:  x44 + x94 + x166 <= 1
 clq64:  x31 + x89 <= 1
 clq65:  x77 + x95 <= 1
 clq66:  x90 + x121 <= 1
 clq67:  x132 + x150 <= 1
 clq68:  x27 + x53 + x84 <= 1
 clq69:  x64 + x70 + x113 <= 1
 clq70:  x88 + x158 <= 1
 clq71:  x36 + x57 + x141 <= 1
 clq72:  x24 + x59 <= 1
 clq73:  x22 + x80 <= 1
 clq74:  x22 + x61 + x102 <= 1
 clq75:  x44 + x157 + x158 <= 1
 clq76:  x159 + x160 + x161 <= 1
 clq77:  x7 + x113 <= 1
 clq78:  x14 + x90 + x141 <= 1
 clq79:  x30 + x146 <= 1
 clq80:  x21 + x94 + x139 <= 1
 clq81:  x25 + x76 + x103 <= 1
 clq82:  x23 + x109 + x145 <= 1
 clq83:  x67 + x115 + x122 + x149 <= 1
 clq84:  x70 + x169 + x170 <= 1
 clq85:  x5 + x29 + x166 <= 1
 clq86:  x147 + x164 <= 1
 clq87:  x74 + x102 <= 1
 clq88:  x109 + x117 <= 1
 clq89:  x106 + x152 + x170 <= 1
 clq90:  x25 + x48 + x76 <= 1
 clq91:  x83 + x93 + x110 <= 1
 clq92:  x35 + x61 <= 1
 clq93:  x149 + x154 + x173 <= 1
 clq94:  x17 + x28 + x34 + x136 <= 1
 clq95:  x44 + x51 + x152 <= 1
 clq96:  x10 + x54 + x114 <= 1
 clq97:  x37 + x68 + x86 <= 1
 clq98:  x16 + x98 + x124 <= 1
 clq99:  x9 + x22 + x120 <= 1
 clq100: x65 + x82 + x146 <= 1
 clq101: x46 + x105 + x108 <= 1
 clq102: x149 + x158 <= 1
 clq103: x4 + x34 + x139 <= 1
 clq104: x129 + x144 <= 1
 clq105: x66 + x78 <= 1
 clq106: x41 + x85 + x115 <= 1
 clq107: x31 + x138 <= 1
 clq108: x87 + x113 + x155 <= 1
 clq109: x14 + x133 <= 1
 clq110: x98 + x116 + x133 <= 1
 clq111: x9 + x79 <= 1
 clq112: x97 + x151 <= 1
 clq113: x115 + x132 <= 1
 clq114: x42 + x144 + x149 <= 1
 clq115: x13 + x113 <= 1
 clq116: x39 + x62 + x161 <= 1
 clq117: x83 + x87 + x143 <= 1
 clq118: x1 + x67 + x118 <= 1
 clq119: x17 + x30 <= 1
 clq120: x39 + x62 + x71 + x116 <= 1
 clq121: x129 + x158 <= 1
 clq122: x55 + x60 + x157 <= 1
 clq123: x41 + x107 + x115 <= 1
 clq124: x13 + x75 <= 1
 clq125: x24 + x51 + x160 <= 1
 clq126: x91 + x129 <= 1
 clq127: x13 + x83 + x110 <= 1
 clq128: x144 + x147 + x150 <= 1
 clq129: x73 + x175 <= 1
 clq130: x81 + x88 + x150 <= 1
 clq131: x24 + x99 <= 1
 clq132: x130 + x152 <= 1
 clq133: x96 + x163 <= 1
 clq134: x149 + x167 <= 1
 clq135: x28 + x121 <= 1
 clq136: x127 + x161 <= 1
 clq137: x89 + x116 + x148 <= 1
 clq138: x31 + x91 + x163 <= 1
 clq139: x10 + x100 <= 1
 clq140: x39 + x71 + x144 + x150 <= 1
 clq141: x21 + x86 <= 1
 clq142: x76 + x100 + x122 <= 1
 clq143: x1 + x27 + x77 <= 1
 clq144: x47 + x93 <= 1
 clq145: x74 + x105 + x160 <= 1
 clq146: x63 + x152 + x153 <= 1
 clq147: x53 + x144 <= 1
 clq148: x128 + x132 <= 1
 clq149: x23 + x52 + x144 <= 1
 clq150: x25 + x80 <= 1
 clq151: x7 + x25 + x76 <= 1
 clq152: x16 + x98 + x133 <= 1
 clq153: x51 + x61 + x72 <= 1
 clq154: x17 + x29 <= 1
 clq155: x32 + x46 <= 1
 clq156: x4 + x175 <= 1
 clq157: x55 + x129 + x160 <= 1
 clq158: x22 + x61 + x65 <= 1
 clq159: x59 + x65 + x146 <= 1
 clq160: x40 + x44 + x152 <= 1
 clq161: x36 + x42 + x149 <= 1
 clq162: x77 + x81 + x82 <= 1
 clq163: x23 + x68 + x86 <= 1
 clq164: x10 + x36 <= 1
 clq165: x6 + x80 + x128 <= 1
 clq166: x19 + x57 + x151 <= 1
 clq167: x11 + x52 + x91 <= 1
 clq168: x54 + x77 <= 1
 clq169: x107 + x114 + x153 <= 1
 clq170: x90 + x124 <= 1
 clq171: x4 + x92 + x125 <= 1
 clq172: x62 + x72 + x166 <= 1
 clq173: x30 + x135 <= 1
 clq174: x25 + x55 + x83 <= 1
 clq175: x133 + x135 <= 1
 clq176: x18 + x95 + x174 <= 1
 clq177: x48 + x136 + x160 <= 1
 clq178: x75 + x99 <= 1
 clq179: x40 + x140 <= 1
 clq180: x51 + x108 + x149 <= 1
 clq181: x35 + x169 <= 1
 clq182: x118 + x135 <= 1
 clq183: x51 + x128 + x149 <= 1
 clq184: x104 + x124 <= 1
 clq185: x4 + x93 + x121 <= 1
 clq186: x8 + x9 + x70 <= 1
 clq187: x37 + x39 + x160 <= 1
 clq188: x98 + x124 + x131 <= 1
 clq189: x85 + x153 <= 1
 clq190: x5 + x25 + x141 <= 1
 clq191: x49 + x53 <= 1
 clq192: x70 + x160 + x170 <= 1
 clq193: x12 + x97 + x154 <= 1
 clq194: x130 + x163 <= 1
 clq195: x83 + x93 + x122 <= 1
 clq196: x38 + x59 <= 1
 clq197: x153 + x174 <= 1
 clq198: x43 + x120 + x149 <= 1
 clq199: x52 + x76 + x117 <= 1
 clq200: x138 + x168 <= 1
 clq201: x70 + x118 + x139 <= 1
 clq202: x12 + x44 + x152 <= 1
 clq203: x41 + x49 + x111 <= 1
 clq204: x6 + x12 + x83 <= 1
 clq205: x27 + x77 + x92 + x125 <= 1
 clq206: x49 + x130 <= 1
 clq207: x90 + x139 <= 1
 clq208: x30 + x39 + x161 <= 1
 clq209: x21 + x52 + x94 <= 1
 clq210: x32 + x37 + x79 <= 1
 clq211: x34 + x69 + x91 <= 1
 clq212: x46 + x151 <= 1
 clq213: x18 + x138 <= 1
 clq214: x89 + x106 + x154 <= 1
 clq215: x5 + x41 <= 1
 clq216: x36 + x122 + x141 <= 1
 clq217: x75 + x126 <= 1
 clq218: x27 + x74 + x77 <= 1
 clq219: x25 + x54 + x114 <= 1
 clq220: x71 + x118 + x158 <= 1
 clq221: x29 + x86 <= 1
 clq222: x69 + x175 <= 1
 clq223: x32 + x121 + x152 <= 1
 clq224: x95 + x128 <= 1
 clq225: x95 + x142 <= 1
 clq226: x26 + x154 <= 1
 clq227: x107 + x125 + x145 <= 1
 clq228: x12 + x28 + x136 <= 1
 clq229: x44 + x96 + x101 + x174 <= 1
 clq230: x28 + x136 + x165 <= 1
 clq231: x5 + x25 + x48 <= 1
 clq232: x1 + x67 + x94 <= 1
 clq233: x36 + x101 + x160 <= 1
 clq234: x60 + x62 + x150 <= 1
 clq235: x9 + x70 + x106 <= 1
 clq236: x104 + x125 <= 1
 clq237: x14 + x72 + x81 + x100 <= 1
 clq238: x4 + x100 + x126 <= 1
 clq239: x39 + x74 + x160 <= 1
 clq240: x1 + x70 + x129 <= 1
 clq241: x98 + x113 <= 1
 clq242: x18 + x104 + x174 <= 1
 clq243: x58 + x114 + x154 <= 1
 clq244: x89 + x113 + x148 <= 1
 clq245: x9 + x22 + x23 <= 1
 clq246: x35 + x87 <= 1
 clq247: x36 + x149 + x175 <= 1
 clq248: x132 + x141 <= 1
 clq249: x7 + x147 + x152 <= 1
 clq250: x59 + x168 <= 1
 clq251: x8 + x39 + x123 + x165 <= 1
 clq252: x50 + x76 + x167 <= 1
 clq253: x69 + x168 <= 1
 clq254: x72 + x89 <= 1
 clq255: x90 + x115 + x125 <= 1
 clq256: x41 + x52 <= 1
 clq257: x47 + x135 + x156 <= 1
 clq258: x37 + x50 + x120 <= 1
 clq259: x55 + x100 + x125 <= 1
 clq260: x14 + x78 + x81 <= 1
 clq261: x20 + x121 <= 1
 clq262: x1 + x128 <= 1
 clq263: x1 + x115 + x129 <= 1
 clq264: x6 + x42 + x71 <= 1
 clq265: x1 + x89 <= 1
 clq266: x2 + x135 <= 1
 clq267: x84 + x118 <= 1
 clq268: x45 + x62 + x63 + x82 <= 1
 clq269: x42 + x103 <= 1
 clq270: x24 + x124 <= 1
 clq271: x77 + x156 <= 1
 clq272: x19 + x34 <= 1
 clq273: x87 + x143 + x166 <= 1
 clq274: x54 + x157 <= 1
 clq275: x8 + x39 + x161 <= 1
 clq276: x29 + x133 <= 1
 clq277: x113 + x128 + x161 <= 1
 clq278: x115 + x116 + x129 <= 1
 clq279: x92 + x101 + x103 <= 1
 clq280: x26 + x55 + x113 <= 1
 clq281: x70 + x114 + x168 <= 1
 clq282: x5 + x70 + x160 <= 1
 clq283: x119 + x161 <= 1
 clq284: x84 + x133 <= 1
 clq285: x19 + x48 + x57 <= 1
 clq286: x12 + x33 + x60 <= 1
 clq287: x31 + x58 + x114 <= 1
 clq288: x66 + x119 + x132 <= 1
 clq289: x54 + x63 <= 1
 clq290: x67 + x115 + x149 + x154 <= 1
 clq291: x9 + x54 + x112 <= 1
 clq292: x109 + x126 + x144 <= 1
 clq293: x111 + x114 + x116 <= 1
 clq294: x15 + x139 <= 1
 clq295: x60 + x96 + x157 <= 1
 clq296: x44 + x59 + x94 + x157 <= 1
 clq297: x84 + x114 + x153 <= 1
 clq298: x43 + x163 <= 1
 clq299: x11 + x91 + x172 <= 1
 clq300: x125 + x144 <= 1
 clq301: x29 + x95 + x166 <= 1
 clq302: x33 + x34 + x136 <= 1
 clq303: x50 + x140 <= 1
 clq304: x67 + x76 + x122 <= 1
 clq305: x133 + x155 <= 1
 clq306: x109 + x121 + x145 <= 1
 clq307: x31 + x42 + x135 <= 1
 clq308: x84 + x149 + x165 <= 1
 clq309: x155 + x159 <= 1
 clq310: x51 + x97 + x160 <= 1
 clq311: x22 + x23 + x49 <= 1
 clq312: x50 + x127 + x133 <= 1
 clq313: x73 + x161 <= 1
 clq314: x135 + x154 <= 1
 clq315: x51 + x79 + x152 + x170 <= 1
 clq316: x26 + x105 <= 1
 clq317: x26 + x101 + x137 <= 1
 clq318: x9 + x54 + x166 <= 1
 clq319: x55 + x67 <= 1
 clq320: x64 + x70 + x106 <= 1
 clq321: x28 + x72 + x171 <= 1
 clq322: x29 + x53 + x61 + x85 <= 1
 clq323: x4 + x24 + x93 <= 1
 clq324: x20 + x41 + x71 + x151 <= 1
 clq325: x42 + x79 + x152 <= 1
 clq326: x26 + x61 <= 1
 clq327: x7 + x56 + x107 <= 1
 clq328: x26 + x142 <= 1
 clq329: x46 + x100 + x116 <= 1
 clq330: x125 + x131 <= 1
 clq331: x55 + x88 + x165 <= 1
 clq332: x48 + x120 <= 1
 clq333: x100 + x132 <= 1
 clq334: x4 + x100 + x125 <= 1
 clq335: x32 + x62 + x63 + x72 <= 1
 clq336: x50 + x66 <= 1
 clq337: x48 + x94 <= 1
 clq338: x18 + x131 + x132 <= 1
 clq339: x41 + x85 + x163 <= 1
 clq340: x50 + x76 + x108 <= 1
 clq341: x33 + x168 <= 1
 clq342: x108 + x113 <= 1
 clq343: x20 + x120 + x151 <= 1
 clq344: x7 + x91 <= 1
 clq345: x4 + x57 + x125 <= 1
 clq346: x126 + x161 <= 1
 clq347: x43 + x113 + x148 <= 1
 clq348: x68 + x83 + x140 <= 1
 clq349: x73 + x150 <= 1
 clq350: x84 + x114 + x168 <= 1
 clq351: x10 + x121 <= 1
 clq352: x152 + x169 + x170 <= 1
 clq353: x86 + x92 + x165 <= 1
 clq354: x71 + x109 + x144 <= 1
 clq355: x18 + x60 + x76 <= 1
 clq356: x123 + x125 <= 1
 clq357: x50 + x99 <= 1
 clq358: x40 + x44 + x158 <= 1
 clq359: x5 + x16 <= 1
 clq360: x7 + x75 + x134 <= 1
 clq361: x15 + x169 + x170 <= 1
 clq362: x67 + x94 + x150 <= 1
 clq363: x13 + x107 + x124 <= 1
 clq364: x4 + x88 + x109 <= 1
 clq365: x30 + x40 <= 1
 clq366: x21 + x32 + x173 <= 1
 clq367: x2 + x148 + x155 <= 1
 clq368: x31 + x91 + x135 <= 1
 clq369: x118 + x137 <= 1
 clq370: x87 + x127 + x143 <= 1
 clq371: x71 + x89 + x150 <= 1
 clq372: x18 + x89 + x106 <= 1
 clq373: x15 + x71 + x127 <= 1
 clq374: x38 + x81 <= 1
 clq375: x4 + x129 + x171 <= 1
 clq376: x63 + x160 <= 1
 clq377: x54 + x107 + x114 <= 1
 clq378: x40 + x65 <= 1
 clq379: x62 + x122 + x166 <= 1
 clq380: x70 + x139 + x147 <= 1
 clq381: x3 + x11 + x172 <= 1
 clq382: x26 + x113 + x148 + x155 <= 1
 clq383: x72 + x145 <= 1
 clq384: x142 + x173 <= 1
 clq385: x46 + x73 + x105 <= 1
 clq386: x57 + x93 + x108 <= 1
 clq387: x101 + x119 <= 1
 clq388: x120 + x138 <= 1
 clq389: x59 + x110 <= 1
 clq390: x17 + x125 <= 1
 clq391: x5 + x48 + x160 <= 1
 clq392: x43 + x99 <= 1
 clq393: x15 + x19 + x129 <= 1
 clq394: x43 + x70 + x160 <= 1
 clq395: x33 + x132 + x155 <= 1
 clq396: x2 + x111 + x131 <= 1
 clq397: x4 + x37 + x143 <= 1
 clq398: x6 + x42 + x98 <= 1
 clq399: x112 + x140 <= 1
 clq400: x74 + x126 <= 1
 clq401: x21 + x94 + x150 <= 1
 clq402: x103 + x154 <= 1
 clq403: x51 + x131 + x160 <= 1
 clq404: x118 + x146 + x152 <= 1
 clq405: x16 + x40 + x105 <= 1
 clq406: x107 + x118 + x158 <= 1
 clq407: x104 + x136 <= 1
 clq408: x69 + x103 + x145 <= 1
 clq409: x95 + x158 <= 1
 clq410: x54 + x114 + x154 <= 1
 clq411: x63 + x104 + x152 <= 1
 clq412: x80 + x145 <= 1
 clq413: x44 + x96 + x114 <= 1
 clq414: x26 + x113 + x138 <= 1
 clq415: x44 + x86 + x164 <= 1
 clq416: x40 + x69 <= 1
 clq417: x96 + x126 + x136 <= 1
 clq418: x55 + x69 + x83 <= 1
 clq419: x40 + x116 <= 1
 clq420: x68 + x90 <= 1
 clq421: x36 + x99 <= 1
 clq422: x88 + x135 + x165 <= 1
 clq423: x89 + x119 + x172 <= 1
 clq424: x112 + x173 <= 1
 clq425: x34 + x53 <= 1
 clq426: x5 + x44 + x158 <= 1
 clq427: x24 + x160 + x164 <= 1
 clq428: x47 + x113 + x161 <= 1
 clq429: x3 + x153 <= 1
 clq430: x9 + x56 + x60 + x68 <= 1
 clq431: x138 + x145 <= 1
 clq432: x37 + x112 + x126 <= 1
 clq433: x105 + x118 <= 1
 clq434: x61 + x107 + x168 <= 1
 clq435: x45 + x124 <= 1
 clq436: x16 + x63 + x82 <= 1
 clq437: x33 + x40 + x79 + x152 <= 1
 clq438: x19 + x57 + x141 <= 1
 clq439: x22 + x42 + x174 <= 1
 clq440: x60 + x153 <= 1
 clq441: x88 + x109 + x123 <= 1
 clq442: x33 + x82 + x125 <= 1
 clq443: x25 + x76 + x114 <= 1
 clq444: x7 + x29 + x53 <= 1
 clq445: x92 + x101 + x137 <= 1
 clq446: x14 + x18 <= 1
 clq447: x60 + x175 <= 1
 clq448: x23 + x116 <= 1
 clq449: x2 + x13 + x72 <= 1
 clq450: x64 + x75 <= 1
 clq451: x5 + x81 + x155 <= 1
 clq452: x15 + x146 <= 1
 clq453: x7 + x78 + x147 <= 1
 clq454: x50 + x76 + x128 <= 1
 clq455: x53 + x74 + x97 <= 1
 clq456: x47 + x82 + x157 + x158 <= 1
 clq457: x54 + x83 + x122 <= 1
 clq458: x26 + x59 <= 1
 clq459: x74 + x78 + x93 <= 1
 clq460: x19 + x101 + x155 <= 1
 clq461: x20 + x41 + x170 <= 1
 clq462: x81 + x82 + x138 <= 1
 clq463: x25 + x64 + x114 <= 1
 clq464: x10 + x94 <= 1
 clq465: x14 + x64 <= 1
 clq466: x21 + x40 + x52 <= 1
 clq467: x62 + x107 + x150 <= 1
 clq468: x20 + x39 + x71 <= 1
 clq469: x80 + x151 <= 1
 clq470: x110 + x158 <= 1
 clq471: x67 + x112 + x150 <= 1
 clq472: x71 + x89 + x172 <= 1
 clq473: x122 + x172 <= 1
 clq474: x28 + x66 <= 1
 clq475: x20 + x103 <= 1
 clq476: x43 + x65 <= 1
 clq477: x110 + x128 <= 1
 clq478: x14 + x21 <= 1
 clq479: x40 + x81 + x105 + x108 <= 1
 clq480: x135 + x171 <= 1
 clq481: x92 + x167 <= 1
 clq482: x43 + x57 <= 1
 clq483: x8 + x50 + x133 <= 1
 clq484: x112 + x127 <= 1
 clq485: x22 + x23 + x174 <= 1
 clq486: x151 + x155 + x156 <= 1
 clq487: x67 + x147 + x150 <= 1
 clq488: x159 + x168 <= 1
 clq489: x6 + x104 <= 1
 clq490: x136 + x151 <= 1
 clq491: x18 + x73 + x174 <= 1
 clq492: x21 + x87 <= 1
 clq493: x37 + x39 + x123 <= 1
 clq494: x16 + x82 + x147 <= 1
 clq495: x46 + x65 <= 1
 clq496: x8 + x152 + x153 <= 1
 clq497: x53 + x145 <= 1
 clq498: x9 + x172 <= 1
 clq499: x26 + x96 + x101 <= 1
 clq500: x77 + x82 + x162 <= 1
 clq501: x91 + x174 <= 1
 clq502: x120 + x151 + x156 <= 1
 clq503: x116 + x159 <= 1
 clq504: x35 + x161 <= 1
 clq505: x31 + x69 + x91 <= 1
 clq506: x49 + x122 + x162 <= 1
 clq507: x15 + x58 + x110 <= 1
 clq508: x74 + x123 + x139 <= 1
 clq509: x19 + x100 + x122 <= 1
 clq510: x17 + x45 <= 1
 clq511: x82 + x125 + x157 <= 1
 clq512: x45 + x76 + x100 <= 1
 clq513: x25 + x30 + x64 + x103 <= 1
 clq514: x81 + x100 + x137 <= 1
 clq515: x54 + x119 <= 1
 clq516: x1 + x121 <= 1
 clq517: x7 + x88 + x109 <= 1
 clq518: x5 + x25 + x103 <= 1
 clq519: x14 + x15 + x141 <= 1
 clq520: x62 + x116 + x157 <= 1
 clq521: x117 + x162 <= 1
 clq522: x35 + x66 <= 1
 clq523: x2 + x32 + x79 <= 1
 clq524: x83 + x102 + x118 <= 1
 clq525: x37 + x89 + x126 <= 1
 clq526: x22 + x61 + x135 <= 1
 clq527: x14 + x163 <= 1
 clq528: x75 + x175 <= 1
 clq529: x23 + x55 + x165 <= 1
 clq530: x3 + x131 <= 1
 clq531: x43 + x113 + x117 <= 1
 clq532: x33 + x105 + x163 <= 1
 clq533: x166 + x167 <= 1
 clq534: x52 + x56 <= 1
 clq535: x20 + x113 <= 1
 clq536: x10 + x113 + x158 <= 1
 clq537: x19 + x29 <= 1
 clq538: x20 + x34 + x91 <= 1
 clq539: x123 + x139 + x165 <= 1
 clq540: x81 + x82 + x87 + x155 <= 1
 clq541: x12 + x92 <= 1
 clq542: x9 + x38 <= 1
 clq543: x16 + x39 <= 1
 clq544: x37 + x52 + x89 <= 1
 clq545: x62 + x102 + x150 <= 1
 clq546: x31 + x50 <= 1
 clq547: x12 + x76 + x100 + x112 <= 1
 clq548: x24 + x112 <= 1
 clq549: x80 + x130 + x159 <= 1
 clq550: x79 + x95 + x100 + x152 <= 1
 clq551: x3 + x94 <= 1
 clq552: x4 + x57 + x103 <= 1
 clq553: x31 + x58 + x78 <= 1
 clq554: x35 + x146 <= 1
 clq555: x97 + x163 <= 1
 clq556: x51 + x79 + x97 <= 1
 clq557: x25 + x149 <= 1
 clq558: x105 + x136 + x160 <= 1
 clq559: x12 + x83 + x134 <= 1
 clq560: x40 + x80 <= 1
 clq561: x36 + x136 + x160 <= 1
 clq562: x27 + x77 + x82 + x125 <= 1
 clq563: x45 + x172 <= 1
 clq564: x34 + x115 <= 1
 clq565: x35 + x99 <= 1
 clq566: x66 + x102 + x166 <= 1
 clq567: x51 + x108 + x170 <= 1
 clq568: x9 + x83 + x93 <= 1
 clq569: x104 + x129 <= 1
 clq570: x43 + x90 <= 1
 clq571: x111 + x134 + x165 <= 1
 clq572: x58 + x126 + x137 <= 1
 clq573: x25 + x62 + x166 <= 1
 clq574: x55 + x159 + x160 <= 1
 clq575: x12 + x100 + x136 <= 1
 clq576: x46 + x128 <= 1
 clq577: x31 + x58 + x163 <= 1
 clq578: x23 + x43 <= 1
 clq579: x1 + x23 + x87 + x143 <= 1
 clq580: x34 + x55 + x69 <= 1
 clq581: x51 + x131 + x152 <= 1
 clq582: x112 + x155 <= 1
 clq583: x41 + x109 + x122 <= 1
 clq584: x9 + x16 + x60 <= 1
 clq585: x41 + x51 + x170 <= 1
 clq586: x68 + x83 + x138 <= 1
 clq587: x4 + x58 + x78 <= 1
 clq588: x3 + x140 <= 1
 clq589: x15 + x67 + x110 <= 1
 clq590: x45 + x63 + x169 <= 1
 clq591: x27 + x37 + x143 <= 1
 clq592: x104 + x141 + x174 <= 1
 clq593: x117 + x131 + x137 <= 1
 clq594: x28 + x67 + x86 <= 1
 clq595: x6 + x74 + x160 <= 1
 clq596: x36 + x79 + x138 <= 1
 clq597: x11 + x29 <= 1
 clq598: x39 + x47 + x161 <= 1
 clq599: x58 + x132 <= 1
 clq600: x44 + x126 + x165 <= 1
 clq601: x1 + x7 <= 1
 clq602: x37 + x39 + x167 <= 1
 clq603: x110 + x134 + x145 <= 1
 clq604: x4 + x16 + x97 + x129 <= 1
 clq605: x37 + x89 + x116 <= 1
 clq606: x59 + x74 <= 1
 clq607: x84 + x169 <= 1
 clq608: x20 + x166 <= 1
 clq609: x10 + x26 + x113 <= 1
 clq610: x68 + x148 <= 1
 clq611: x72 + x175 <= 1
 clq612: x41 + x85 + x87 <= 1
 clq613: x24 + x51 + x82 <= 1
 clq614: x57 + x93 + x110 <= 1
 clq615: x44 + x173 <= 1
 clq616: x11 + x66 + x98 <= 1
 clq617: x70 + x134 <= 1
 clq618: x151 + x168 <= 1
 clq619: x59 + x104 + x141 <= 1
 clq620: x80 + x129 <= 1
 clq621: x44 + x96 + x101 + x157 <= 1
 clq622: x52 + x102 <= 1
 clq623: x40 + x106 + x152 <= 1
 clq624: x35 + x52 + x76 <= 1
 clq625: x121 + x145 + x174 <= 1
 clq626: x39 + x62 + x81 + x150 <= 1
 clq627: x25 + x131 <= 1
 clq628: x22 + x42 + x85 <= 1
 clq629: x147 + x173 <= 1
 clq630: x28 + x58 + x72 <= 1
 clq631: x45 + x76 + x145 <= 1
 clq632: x28 + x97 + x160 <= 1
 clq633: x28 + x75 <= 1
 clq634: x78 + x93 + x147 <= 1
 clq635: x5 + x29 + x146 <= 1
 clq636: x20 + x173 <= 1
 clq637: x2 + x39 + x65 <= 1
 clq638: x43 + x94 + x166 <= 1
 clq639: x23 + x49 + x68 <= 1
 clq640: x34 + x51 <= 1
 clq641: x35 + x163 <= 1
 clq642: x50 + x57 + x108 <= 1
 clq643: x73 + x99 + x142 <= 1
 clq644: x9 + x35 <= 1
 clq645: x69 + x146 <= 1
 clq646: x42 + x63 + x152 <= 1
 clq647: x45 + x163 + x175 <= 1
 clq648: x49 + x78 + x95 <= 1
 clq649: x23 + x144 + x165 <= 1
 clq650: x4 + x78 + x109 <= 1
 clq651: x76 + x84 + x114 <= 1
 clq652: x58 + x167 <= 1
 clq653: x3 + x11 + x79 <= 1
 clq654: x86 + x168 <= 1
 clq655: x73 + x101 + x103 <= 1
 clq656: x56 + x81 + x98 <= 1
 clq657: x123 + x132 + x155 <= 1
 clq658: x107 + x164 <= 1
 clq659: x23 + x104 + x152 <= 1
 clq660: x59 + x65 + x141 <= 1
 clq661: x65 + x101 <= 1
 clq662: x47 + x61 + x135 <= 1
 clq663: x11 + x20 + x91 <= 1
 clq664: x59 + x117 + x165 <= 1
 clq665: x26 + x41 <= 1
 clq666: x90 + x103 <= 1
 clq667: x27 + x74 + x143 <= 1
 clq668: x9 + x68 + x83 <= 1
 clq669: x7 + x29 + x109 <= 1
 clq670: x99 + x130 <= 1
 clq671: x12 + x60 + x76 + x100 <= 1
 clq672: x14 + x79 + x100 + x122 <= 1
 clq673: x28 + x158 <= 1
 clq674: x18 + x19 + x48 <= 1
 clq675: x30 + x174 <= 1
 clq676: x29 + x120 + x156 <= 1
 clq677: x60 + x74 <= 1
 clq678: x59 + x65 + x95 <= 1
 clq679: x36 + x78 <= 1
 clq680: x36 + x138 + x169 <= 1
 clq681: x6 + x148 + x160 <= 1
 clq682: x44 + x133 <= 1
 clq683: x59 + x167 <= 1
 clq684: x74 + x80 + x130 <= 1
 clq685: x25 + x76 + x112 <= 1
 clq686: x119 + x129 <= 1
 clq687: x12 + x97 + x134 <= 1
 clq688: x14 + x72 + x141 <= 1
 clq689: x88 + x169 <= 1
 clq690: x39 + x49 + x171 <= 1
 clq691: x36 + x51 + x149 <= 1
 clq692: x51 + x160 + x161 <= 1
 clq693: x49 + x94 <= 1
 clq694: x32 + x72 + x162 <= 1
 clq695: x65 + x75 + x156 <= 1
 clq696: x121 + x145 + x161 <= 1
 clq697: x111 + x144 + x147 <= 1
 clq698: x6 + x88 <= 1
 clq699: x62 + x116 + x166 <= 1
 clq700: x70 + x129 + x160 <= 1
 clq701: x33 + x132 + x134 <= 1
 clq702: x36 + x122 + x160 <= 1
 clq703: x2 + x39 + x136 <= 1
 clq704: x23 + x68 + x151 <= 1
 clq705: x119 + x131 + x163 <= 1
 clq706: x21 + x101 + x103 <= 1
 clq707: x70 + x102 + x118 <= 1
 clq708: x32 + x159 + x162 <= 1
 clq709: x55 + x173 <= 1
 clq710: x83 + x118 + x140 <= 1
 clq711: x37 + x107 + x114 <= 1
 clq712: x34 + x96 + x136 <= 1
 clq713: x51 + x146 + x152 <= 1
 clq714: x123 + x132 + x173 <= 1
 clq715: x14 + x90 + x143 <= 1
 clq716: x2 + x93 <= 1
 clq717: x3 + x73 <= 1
 clq718: x106 + x155 <= 1
 clq719: x1 + x79 + x118 <= 1
 clq720: x67 + x149 + x175 <= 1
 clq721: x28 + x136 + x160 <= 1
 clq722: x31 + x67 <= 1
 clq723: x11 + x57 <= 1
 clq724: x125 + x145 + x161 <= 1
 clq725: x5 + x67 <= 1
 clq726: x63 + x134 <= 1
 clq727: x90 + x100 + x125 <= 1
 clq728: x92 + x101 + x155 <= 1
 clq729: x124 + x131 + x132 <= 1
 clq730: x98 + x143 <= 1
 clq731: x89 + x168 + x172 <= 1
 clq732: x6 + x117 <= 1
 clq733: x66 + x104 + x156 <= 1
 clq734: x120 + x130 <= 1
 clq735: x2 + x32 + x76 <= 1
 clq736: x108 + x157 <= 1
 clq737: x22 + x33 + x120 + x149 <= 1
 clq738: x5 + x119 <= 1
 clq739: x56 + x67 <= 1
 clq740: x69 + x99 <= 1
 clq741: x91 + x111 + x114 <= 1
 clq742: x80 + x101 <= 1
 clq743: x47 + x70 + x113 <= 1
 clq744: x2 + x28 + x73 <= 1
 clq745: x21 + x151 <= 1
 clq746: x2 + x111 + x134 <= 1
 clq747: x29 + x38 + x85 <= 1
 clq748: x66 + x123 + x132 <= 1
 clq749: x47 + x132 <= 1
 clq750: x81 + x147 + x150 <= 1
 clq751: x27 + x66 <= 1
 clq752: x11 + x60 <= 1
 clq753: x43 + x70 + x113 <= 1
 clq754: x49 + x169 <= 1
 clq755: x101 + x169 + x170 <= 1
 clq756: x62 + x82 + x102 <= 1
 clq757: x10 + x111 + x114 <= 1
 clq758: x11 + x66 + x91 <= 1
 clq759: x107 + x125 + x140 <= 1
 clq760: x41 + x111 + x157 <= 1
 clq761: x89 + x106 + x152 <= 1
 clq762: x119 + x163 + x175 <= 1
 clq763: x13 + x107 + x115 + x125 <= 1
 clq764: x127 + x162 <= 1
 clq765: x51 + x108 + x172 <= 1
 clq766: x64 + x82 + x157 <= 1
 clq767: x120 + x137 <= 1
 clq768: x84 + x119 <= 1
 clq769: x7 + x96 <= 1
 clq770: x86 + x135 + x165 <= 1
 clq771: x29 + x109 + x121 <= 1
 clq772: x100 + x112 + x126 <= 1
 clq773: x39 + x136 + x160 <= 1
 clq774: x107 + x114 + x168 <= 1
 clq775: x41 + x112 <= 1
 clq776: x21 + x40 + x105 <= 1
 clq777: x18 + x149 <= 1
 clq778: x79 + x104 + x122 <= 1
 clq779: x43 + x106 + x154 <= 1
 clq780: x66 + x145 <= 1
 clq781: x48 + x75 <= 1
 clq782: x68 + x86 + x164 <= 1
 clq783: x119 + x138 <= 1
 clq784: x4 + x109 + x127 <= 1
 clq785: x30 + x115 + x161 <= 1
 clq786: x36 + x53 <= 1
 clq787: x22 + x149 + x175 <= 1
 clq788: x20 + x85 + x120 <= 1
 clq789: x17 + x59 <= 1
 clq790: x3 + x32 + x72 <= 1
 clq791: x2 + x73 + x169 <= 1
 clq792: x77 + x103 + x140 + x162 <= 1
 clq793: x45 + x56 <= 1
 clq794: x67 + x110 + x145 <= 1
 clq795: x7 + x29 + x75 <= 1
 clq796: x27 + x141 <= 1
 clq797: x64 + x137 <= 1
 clq798: x60 + x110 <= 1
 clq799: x44 + x59 + x165 <= 1
 clq800: x30 + x64 + x128 <= 1
 clq801: x19 + x42 <= 1
 clq802: x101 + x116 + x157 <= 1
 clq803: x17 + x102 + x171 <= 1
 clq804: x22 + x139 + x174 <= 1
 clq805: x82 + x89 <= 1
 clq806: x41 + x60 + x157 <= 1
 clq807: x23 + x144 + x150 <= 1
 clq808: x46 + x94 <= 1
 clq809: x29 + x38 + x156 <= 1
 clq810: x75 + x122 <= 1
 clq811: x82 + x139 + x147 <= 1
 clq812: x121 + x134 + x145 <= 1
 clq813: x66 + x130 <= 1
 clq814: x4 + x34 + x93 <= 1
 clq815: x11 + x52 + x58 <= 1
 clq816: x36 + x101 + x116 <= 1
 clq817: x37 + x50 + x86 <= 1
 clq818: x133 + x137 <= 1
 clq819: x5 + x44 + x141 <= 1
 clq820: x30 + x78 <= 1
 clq821: x62 + x63 + x116 <= 1
 clq822: x44 + x51 + x174 <= 1
 clq823: x83 + x94 + x170 <= 1
 clq824: x5 + x153 + x166 <= 1
 clq825: x22 + x33 + x136 <= 1
 clq826: x20 + x67 + x86 <= 1
 clq827: x72 + x120 <= 1
 clq828: x12 + x42 + x149 + x152 <= 1
 clq829: x65 + x124 <= 1
 clq830: x15 + x79 + x170 <= 1
 clq831: x25 + x156 + x164 <= 1
 clq832: x55 + x120 <= 1
 clq833: x21 + x75 + x134 <= 1
 clq834: x44 + x71 + x94 <= 1
 clq835: x34 + x91 + x136 <= 1
 clq836: x9 + x73 <= 1
 clq837: x1 + x8 + x70 <= 1
 clq838: x41 + x109 + x163 <= 1
 clq839: x24 + x91 + x111 <= 1
 clq840: x68 + x131 <= 1
 clq841: x111 + x144 + x165 <= 1
 clq842: x41 + x92 + x163 <= 1
 clq843: x66 + x157 <= 1
 clq844: x81 + x108 + x129 <= 1
 clq845: x101 + x143 + x157 <= 1
 clq846: x83 + x110 + x143 <= 1
 clq847: x15 + x19 + x141 <= 1
 clq848: x76 + x145 + x174 <= 1
 clq849: x22 + x85 + x142 <= 1
 clq850: x23 + x49 + x54 <= 1
 clq851: x122 + x142 <= 1
 clq852: x4 + x100 + x129 <= 1
 clq853: x77 + x173 <= 1
 clq854: x14 + x81 + x100 + x129 <= 1
 clq855: x78 + x151 <= 1
 clq856: x15 + x111 + x134 <= 1
 clq857: x2 + x139 <= 1
 clq858: x11 + x42 + x98 <= 1
 clq859: x10 + x80 + x130 <= 1
 clq860: x55 + x113 + x165 <= 1
 clq861: x67 + x76 + x112 <= 1
 clq862: x52 + x175 <= 1
 clq863: x103 + x130 + x136 <= 1
 clq864: x23 + x49 + x96 <= 1
Bounds
 0 <= x1 <= 1
 0 <= x2 <= 1
 0 <= x3 <= 1
 0 <= x4 <= 1
 0 <= x5 <= 1
 0 <= x6 <= 1
 0 <= x7 <= 1
 0 <= x8 <= 1
 0 <= x9 <= 1
 0 <= x10 <= 1
 0 <= x11 <= 1
 0 <= x12 <= 1
 0 <= x13 <= 1
 0 <= x14 <= 1
 0 <= x15 <= 1
 0 <= x16 <= 1
 0 <= x17 <= 1
 0 <= x18 <= 1
 0 <= x19 <= 1
 0 <= x20 <= 1
 0 <= x21 <= 1
 0 <= x22 <= 1
 0 <= x23 <= 1
 0 <= x24 <= 1
 0 <= x25 <= 1
 0 <= x26 <= 1
 0 <= x27 <= 1
 0 <= x28 <= 1
 0 <= x29 <= 1
 0 <= x30 <= 1
 0 <= x31 <= 1
 0 <= x32 <= 1
 0 <= x33 <= 1
 0 <= x34 <= 1
 0 <= x35 <= 1
 0 <= x36 <= 1
 0 <= x37 <= 1
 0 <= x38 <= 1
 0 <= x39 <= 1
 0 <= x40 <= 1
 0 <= x41 <= 1
 0 <= x42 <= 1
 0 <= x43 <= 1
 0 <= x44 <= 1
 0 <= x45 <= 1
 0 <= x46 <= 1
 0 <= x47 <= 1
 0 <= x48 <= 1
 0 <= x49 <= 1
 0 <= x50 <= 1
 0 <= x51 <= 1
 0 <= x52 <= 1
 0 <= x53 <= 1
 0 <= x54 <= 1
 0 <= x55 <= 1
 0 <= x56 <= 1
 0 <= x57 <= 1
 0 <= x58 <= 1
 0 <= x59 <= 1
 0 <= x60 <= 1
 0 <= x61 <= 1
 0 <= x62 <= 1
 0 <= x63 <= 1
 0 <= x64 <= 1
 0 <= x65 <= 1
 0 <= x66 <= 1
 0 <= x67 <= 1
 0 <= x68 <= 1
 0 <= x69 <= 1
 0 <= x70 <= 1
 0 <= x71 <= 1
 0 <= x72 <= 1
 0 <= x73 <= 1
 0 <= x74 <= 1
 0 <= x75 <= 1
 0 <= x76 <= 1
 0 <= x77 <= 1
 0 <= x78 <= 1
 0 <= x79 <= 1
 0 <= x80 <= 1
 0 <= x81 <= 1
 0 <= x82 <= 1
 0 <= x83 <= 1
 0 <= x84 <= 1
 0 <= x85 <= 1
 0 <= x86 <= 1
 0 <= x87 <= 1
 0 <= x88 <= 1
 0 <= x89 <= 1
 0 <= x90 <= 1
 0 <= x91 <= 1
 0 <= x92 <= 1
 0 <= x93 <= 1
 0 <= x94 <= 1
 0 <= x95 <= 1
 0 <= x96 <= 1
 0 <= x97 <= 1
 0 <= x98 <= 1
 0 <= x99 <= 1
 0 <= x100 <= 1
 0 <= x101 <= 1
 0 <= x102 <= 1
 0 <= x103 <= 1
 0 <= x104 <= 1
 0 <= x105 <= 1
 0 <= x106 <= 1
 0 <= x107 <= 1
 0 <= x108 <= 1
 0 <= x109 <= 1
 0 <= x110 <= 1
 0 <= x111 <= 1
 0 <= x112 <= 1
 0 <= x113 <= 1
 0 <= x114 <= 1
 0 <= x115 <= 1
 0 <= x116 <= 1
 0 <= x117 <= 1
 0 <= x118 <= 1
 0 <= x119 <= 1
 0 <= x120 <= 1
 0 <= x121 <= 1
 0 <= x122 <= 1
 0 <= x123 <= 1
 0 <= x124 <= 1
 0 <= x125 <= 1
 0 <= x126 <= 1
 0 <= x127 <= 1
 0 <= x128 <= 1
 0 <= x129 <= 1
 0 <= x130 <= 1
 0 <= x131 <= 1
 0 <= x132 <= 1
 0 <= x133 <= 1
 0 <= x134 <= 1
 0 <= x135 <= 1
 0 <= x136 <= 1
 0 <= x137 <= 1
 0 <= x138 <= 1
 0 <= x139 <= 1
 0 <= x140 <= 1
 0 <= x141 <= 1
 0 <= x142 <= 1
 0 <= x143 <= 1
 0 <= x144 <= 1
 0 <= x145 <= 1
 0 <= x146 <= 1
 0 <= x147 <= 1
 0 <= x148 <= 1
 0 <= x149 <= 1
 0 <= x150 <= 1
 0 <= x151 <= 1
 0 <= x152 <= 1
 0 <= x153 <= 1
 0 <= x154 <= 1
 0 <= x155 <= 1
 0 <= x156 <= 1
 0 <= x157 <= 1
 0 <= x158 <= 1
 0 <= x159 <= 1
 0 <= x160 <= 1
 0 <= x161 <= 1
 0 <= x162 <= 1
 0 <= x163 <= 1
 0 <= x164 <= 1
 0 <= x165 <= 1
 0 <= x166 <= 1
 0 <= x167 <= 1
 0 <= x168 <= 1
 0 <= x169 <= 1
 0 <= x170 <= 1
 0 <= x171 <= 1
 0 <= x172 <= 1
 0 <= x173 <= 1
 0 <= x174 <= 1
 0 <= x175 <= 1
Binaries
 x1  x2  x3  x4  x5  x6  x7  x8  x9  x10  x11  x12  x13  x14  x15  x16  x17 
 x18  x19  x20  x21  x22  x23  x24  x25  x26  x27  x28  x29  x30  x31  x32 
 x33  x34  x35  x36  x37  x38  x39  x40  x41  x42  x43  x44  x45  x46  x47 
 x48  x49  x50  x51  x52  x53  x54  x55  x56  x57  x58  x59  x60  x61  x62 
 x63  x64  x65  x66  x67  x68  x69  x70  x71  x72  x73  x74  x75  x76  x77 
 x78  x79  x80  x81  x82  x83  x84  x85  x86  x87  x88  x89  x90  x91  x92 
 x93  x94  x95  x96  x97  x98  x99  x100  x101  x102  x103  x104  x105  x106 
 x107  x108  x109  x110  x111  x112  x113  x114  x115  x116  x117  x118  x119 
 x120  x121  x122  x123  x124  x125  x126  x127  x128  x129  x130  x131  x132 
 x133  x134  x135  x136  x137  x138  x139  x140  x141  x142  x143  x144  x145 
 x146  x147  x148  x149  x150  x151  x152  x153  x154  x155  x156  x157  x158 
 x159  x160  x161  x162  x163  x164  x165  x166  x167  x168  x169  x170  x171 
 x172  x173  x174  x175 
End
